(set-info :smt-lib-version 2.7)
(set-logic QF_EIA)
(set-info :source |
Generated by: Florian Frohn
Generator: LoAT
Application: proving lower bounds on the worst-case runtime of transition systems
Target solver: SwInE
Time limit: 1.0
Benchmarks generated by the verification tool LoAT to evaluate the SMT solver
SwInE. We extracted all benchmarks with exponentiation that were generated by
LoAT when analyzing the examples from the category LIA-Lin (linear CHCs with
linear integer arithmetic) of the CHC competitions 2022 and 2023, and when
analyzing the examples from the categories "Termination of Integer Transition
Systems" and "Complexity of Integer Transition Systems" of the Termination and
Complexity Competition 2024. From the entire set, we selected those where
* SwInE v0.1.0 or SwInE-Z3 v0.1.2 failed or needed more than 1 second, or
* SwInE-Z3 v0.1.2 failed without phasing, a technique to prevent SwInE from
  computing with huge constants (described here
  https://arxiv.org/abs/2502.04761)
If several selected benchmarks only differed in lines not containing
exponentiation, we kept only one of them. This benchmark is known to be
satisfiable with the slightly different semantics of exponentiation used by the
versions of SwInE mentioned above.
|)
(set-info :license "https://creativecommons.org/licenses/by/4.0/")
(set-info :category "industrial")
(set-info :status unknown)

(declare-fun i1 () Int)
(declare-fun it1 () Int)
(declare-fun i2 () Int)
(declare-fun it2 () Int)
(declare-fun i3 () Int)
(declare-fun it3 () Int)
(declare-fun it4 () Int)
(declare-fun i4 () Int)
(declare-fun i5 () Int)
(declare-fun it5 () Int)
(declare-fun i6 () Int)
(declare-fun it6 () Int)
(declare-fun it92 () Int)
(declare-fun it13 () Int)
(declare-fun it117 () Int)
(declare-fun it120 () Int)
(declare-fun it121 () Int)
(declare-fun it122 () Int)
(declare-fun it123 () Int)
(declare-fun it124 () Int)
(declare-fun it125 () Int)
(declare-fun it128 () Int)
(declare-fun it253 () Int)
(declare-fun it254 () Int)
(declare-fun it255 () Int)
(declare-fun it256 () Int)
(declare-fun it257 () Int)
(declare-fun it258 () Int)
(assert (= (+ i1 (- 1)) 0))
(assert (= (+ it1 (- 2)) 0))
(assert (= (+ it2 (* i2 (- 1)) (- 1)) 0))
(assert (= (+ it3 (* i3 (- 1))) 0))
(assert (= (+ (* i4 (- 1)) it4) 0))
(assert (= (+ it5 (* i5 (- 1))) 0))
(assert (= (+ it6 (* i6 (- 1))) 0))
(assert (let ((a!1 (+ (* (+ it117 (- 1)) it13 (- 2))
              it3
              (* it13 (- 2))
              (* (+ it117 (- 1)) it92 (- 2))))
      (a!3 (> (+ (+ it3 (* it13 (- 2))) (* it92 (- 2)) 1) 0))
      (a!5 (> (+ (+ it3 (* it13 (- 2))) 1) 0)))
(let ((a!2 (> (+ (+ a!1 (* it92 (- 2))) 2) 0))
      (a!4 (> (+ (+ a!1 (* it92 (- 2))) 1) 0)))
  (and (>= (+ (* it1 (- 1)) 2) 0)
       a!2
       a!3
       a!4
       (>= (+ it1 (- 2)) 0)
       (>= (+ it13 (- 1)) 0)
       (> (+ a!1 1) 0)
       (>= (+ it117 (- 1)) 0)
       (> (+ a!1 2) 0)
       a!5
       (>= (+ it92 (- 1)) 0)))))
(assert (= (+ it120 (* it1 (- 1))) 0))
(assert (= (+ it121 (* it117 it13 (- 2)) (* it2 (- 1)) (* it117 it92 (- 2))) 0))
(assert (= (+ (* it117 it13 2) (* it117 it92 2) it122 (* it3 (- 1))) 0))
(assert (let ((a!1 (* (** (- 1) (+ (* it117 it13) (* it117 it92)))
              (+ 0 it4)
              (+ 0 (- 1)))))
  (= (+ a!1 (+ 0 it123)) (+ 0 0))))
(assert (let ((a!1 (* (+ 0 it5)
              (** (- 1) (+ (* it117 it13) (* it117 it92)))
              (+ 0 (- 1)))))
  (= (+ (+ 0 it124) a!1) (+ 0 0))))
(assert (let ((a!1 (+ (* (** it117 3) (** it13 2) (+ 0 it92) (+ 0 (- 24)))
              (* (* (+ 0 it117) (** it3 2)) (+ 0 it92) (+ 0 (- 6)))
              (+ 0 (* it117 it13 (- 1)))
              (* (* (** it117 2) (+ 0 it3)) (** it13 2) (+ 0 12))
              (* (** it117 2) (+ 0 it13) (+ 0 it92) (+ 0 12))
              (* (* (+ 0 it117) (** it3 2)) (+ 0 it13) (+ 0 (- 6)))
              (+ 0 (* it125 3))
              (+ 0 (* it117 it92 (- 1)))
              (* (* (** it117 2) (+ 0 it3)) (** it92 2) (+ 0 12))
              (* (* (** it117 2) (+ 0 it3))
                 (+ 0 it13)
                 (+ 0 it92)
                 (+ 0 24))
              (+ 0 (* it6 (- 3)))
              (+ 0 (* (* it117 it3) it13 (- 6)))
              (* (** it117 3) (+ 0 it13) (** it92 2) (+ 0 (- 24)))
              (* (** it117 3) (** it92 3) (+ 0 (- 8)))
              (* (** it117 2) (** it13 2) (+ 0 6))
              (+ 0 (* (* it117 it3) it92 (- 6)))
              (* (** it117 3) (** it13 3) (+ 0 (- 8)))
              (* (** it117 2) (** it92 2) (+ 0 6)))))
  (= a!1 (+ 0 0))))
(assert (let ((a!1 (> (+ (+ (* it128 (- 2)) it122) 1) 0))
      (a!2 (> (+ (+ (* it128 (- 2)) it122) 2) 0)))
  (and (>= (+ it128 (- 1)) 0)
       (>= (+ it120 (- 2)) 0)
       a!1
       (>= (+ (* it120 (- 1)) 2) 0)
       a!2)))
(assert (= (+ (* it120 (- 1)) it253) 0))
(assert (= (+ it254 (* it121 (- 1)) (* it128 (- 2))) 0))
(assert (= (+ (* it128 2) it255 (* it122 (- 1))) 0))
(assert (= (+ (* (** (- 1) it128) (+ 0 it123) (+ 0 (- 1))) (+ 0 it256))
   (+ 0 0)))
(assert (= (+ (+ 0 it257) (* (+ 0 it124) (** (- 1) it128) (+ 0 (- 1))))
   (+ 0 0)))
(assert (= (+ (* (** it128 2) (+ 0 6))
      (+ 0 (* it128 it122 (- 6)))
      (* (** it128 3) (+ 0 (- 8)))
      (+ 0 (* it128 (- 1)))
      (+ 0 (* it258 3))
      (+ 0 (* it125 (- 3)))
      (* (+ 0 it128) (** it122 2) (+ 0 (- 6)))
      (* (** it128 2) (+ 0 it122) (+ 0 12)))
   (+ 0 0)))
(check-sat)
(exit)
